
(set-logic HORN)
(declare-rel assert_171_24_1_abs (Int Int Int Int Int Int Int Int Int Int Int))
(declare-rel assign_147_23_1_abs (Int Int Int Int Int Int Int Int Int Int Int))
(declare-rel assign_126_20_5_abs (Int Int Int Int Int Int Int Int Int Int Int))
(declare-rel arrayassign_117_19_5_abs (Int Int Int Int Int Int Int Int Int Int Int))
(declare-rel while_129_18_1_abs (Int Int Int Int Int Int Int Int Int Int Int))
(declare-rel assign_89_17_1_abs (Int Int Int Int Int Int Int Int Int Int Int))
(declare-rel assign_80_14_5_abs (Int Int Int Int Int Int Int Int Int Int Int))
(declare-rel arrayassign_71_13_5_abs (Int Int Int Int Int Int Int Int Int Int Int))
(declare-rel while_83_12_1_abs (Int Int Int Int Int Int Int Int Int Int Int))
(declare-rel assign_49_10_1_abs (Int Int Int Int Int Int Int Int Int Int Int))
(declare-rel assign_37_9_1_abs (Int Int Int Int Int Int Int Int Int Int Int))
(declare-rel end_abs (Int Int Int Int Int Int Int Int Int Int Int))
(declare-rel start_abs (Int Int Int Int Int Int Int Int Int Int Int));Number of predicates (nodes) = 13
;Number of variables = 5
;Number of clauses = 16
;
(assert (forall ( (vacker_1 Int) (vacker_0 Int) (vacker_11 Int) (vacker_01 Int) (size Int) (k Int) (i Int) (i1 Int) (i2 Int) (i3 Int) (i4 Int)) (=> (and (=> (= i3 i4) (= vacker_0 vacker_1)) (=> (= i1 i2) (= vacker_01 vacker_11))) (start_abs i4 vacker_0 i3 vacker_0 i2 vacker_01 i1 vacker_01 size k i))))
(assert (forall ( (i Int) (k Int) (size Int) (vacker_1 Int) (vacker_0 Int) (vacker_11 Int) (vacker_01 Int) (i1 Int) (i2 Int) (i3 Int) (i4 Int)) (=> (and (=> (= i1 i2) (= vacker_0 vacker_1)) (=> (= i3 i4) (= vacker_01 vacker_11)) (start_abs i3 vacker_01 i3 vacker_01 i1 vacker_0 i1 vacker_0 size k i) (start_abs i3 vacker_01 i3 vacker_01 i1 vacker_0 i2 vacker_0 size k i) (start_abs i3 vacker_01 i3 vacker_01 i2 vacker_0 i1 vacker_0 size k i) (start_abs i3 vacker_01 i3 vacker_01 i2 vacker_0 i2 vacker_0 size k i) (start_abs i3 vacker_01 i4 vacker_01 i1 vacker_0 i1 vacker_0 size k i) (start_abs i3 vacker_01 i4 vacker_01 i1 vacker_0 i2 vacker_0 size k i) (start_abs i3 vacker_01 i4 vacker_01 i2 vacker_0 i1 vacker_0 size k i) (start_abs i3 vacker_01 i4 vacker_01 i2 vacker_0 i2 vacker_0 size k i) (start_abs i4 vacker_01 i3 vacker_01 i1 vacker_0 i1 vacker_0 size k i) (start_abs i4 vacker_01 i3 vacker_01 i1 vacker_0 i2 vacker_0 size k i) (start_abs i4 vacker_01 i3 vacker_01 i2 vacker_0 i1 vacker_0 size k i) (start_abs i4 vacker_01 i3 vacker_01 i2 vacker_0 i2 vacker_0 size k i) (start_abs i4 vacker_01 i4 vacker_01 i1 vacker_0 i1 vacker_0 size k i) (start_abs i4 vacker_01 i4 vacker_01 i1 vacker_0 i2 vacker_0 size k i) (start_abs i4 vacker_01 i4 vacker_01 i2 vacker_0 i1 vacker_0 size k i) (start_abs i4 vacker_01 i4 vacker_01 i2 vacker_0 i2 vacker_0 size k i)) (assign_37_9_1_abs i4 vacker_01 i3 vacker_01 i2 vacker_0 i1 vacker_0 size k i))))
;
;(assign)  i := 0
(assert (forall ( (i Int) (k Int) (size Int) (vacker_1 Int) (vacker_0 Int) (vacker_11 Int) (vacker_01 Int) (i1 Int) (i2 Int) (i3 Int) (i4 Int)) (=> (and (=> (= i1 i2) (= vacker_0 vacker_1)) (=> (= i3 i4) (= vacker_01 vacker_11)) (assign_37_9_1_abs i3 vacker_01 i3 vacker_01 i1 vacker_0 i1 vacker_0 size k i) (assign_37_9_1_abs i3 vacker_01 i3 vacker_01 i1 vacker_0 i2 vacker_0 size k i) (assign_37_9_1_abs i3 vacker_01 i3 vacker_01 i2 vacker_0 i1 vacker_0 size k i) (assign_37_9_1_abs i3 vacker_01 i3 vacker_01 i2 vacker_0 i2 vacker_0 size k i) (assign_37_9_1_abs i3 vacker_01 i4 vacker_01 i1 vacker_0 i1 vacker_0 size k i) (assign_37_9_1_abs i3 vacker_01 i4 vacker_01 i1 vacker_0 i2 vacker_0 size k i) (assign_37_9_1_abs i3 vacker_01 i4 vacker_01 i2 vacker_0 i1 vacker_0 size k i) (assign_37_9_1_abs i3 vacker_01 i4 vacker_01 i2 vacker_0 i2 vacker_0 size k i) (assign_37_9_1_abs i4 vacker_01 i3 vacker_01 i1 vacker_0 i1 vacker_0 size k i) (assign_37_9_1_abs i4 vacker_01 i3 vacker_01 i1 vacker_0 i2 vacker_0 size k i) (assign_37_9_1_abs i4 vacker_01 i3 vacker_01 i2 vacker_0 i1 vacker_0 size k i) (assign_37_9_1_abs i4 vacker_01 i3 vacker_01 i2 vacker_0 i2 vacker_0 size k i) (assign_37_9_1_abs i4 vacker_01 i4 vacker_01 i1 vacker_0 i1 vacker_0 size k i) (assign_37_9_1_abs i4 vacker_01 i4 vacker_01 i1 vacker_0 i2 vacker_0 size k i) (assign_37_9_1_abs i4 vacker_01 i4 vacker_01 i2 vacker_0 i1 vacker_0 size k i) (assign_37_9_1_abs i4 vacker_01 i4 vacker_01 i2 vacker_0 i2 vacker_0 size k i)) (assign_49_10_1_abs i4 vacker_01 i3 vacker_01 i2 vacker_0 i1 vacker_0 size k 0))))
;
;(assign)  size := Support.random()
(assert (forall ( (rnd Int) (i Int) (k Int) (size Int) (vacker_1 Int) (vacker_0 Int) (vacker_11 Int) (vacker_01 Int) (i1 Int) (i2 Int) (i3 Int) (i4 Int)) (=> (and (=> (= i1 i2) (= vacker_0 vacker_1)) (=> (= i3 i4) (= vacker_01 vacker_11)) (assign_49_10_1_abs i3 vacker_01 i3 vacker_01 i1 vacker_0 i1 vacker_0 size k i) (assign_49_10_1_abs i3 vacker_01 i3 vacker_01 i1 vacker_0 i2 vacker_0 size k i) (assign_49_10_1_abs i3 vacker_01 i3 vacker_01 i2 vacker_0 i1 vacker_0 size k i) (assign_49_10_1_abs i3 vacker_01 i3 vacker_01 i2 vacker_0 i2 vacker_0 size k i) (assign_49_10_1_abs i3 vacker_01 i4 vacker_01 i1 vacker_0 i1 vacker_0 size k i) (assign_49_10_1_abs i3 vacker_01 i4 vacker_01 i1 vacker_0 i2 vacker_0 size k i) (assign_49_10_1_abs i3 vacker_01 i4 vacker_01 i2 vacker_0 i1 vacker_0 size k i) (assign_49_10_1_abs i3 vacker_01 i4 vacker_01 i2 vacker_0 i2 vacker_0 size k i) (assign_49_10_1_abs i4 vacker_01 i3 vacker_01 i1 vacker_0 i1 vacker_0 size k i) (assign_49_10_1_abs i4 vacker_01 i3 vacker_01 i1 vacker_0 i2 vacker_0 size k i) (assign_49_10_1_abs i4 vacker_01 i3 vacker_01 i2 vacker_0 i1 vacker_0 size k i) (assign_49_10_1_abs i4 vacker_01 i3 vacker_01 i2 vacker_0 i2 vacker_0 size k i) (assign_49_10_1_abs i4 vacker_01 i4 vacker_01 i1 vacker_0 i1 vacker_0 size k i) (assign_49_10_1_abs i4 vacker_01 i4 vacker_01 i1 vacker_0 i2 vacker_0 size k i) (assign_49_10_1_abs i4 vacker_01 i4 vacker_01 i2 vacker_0 i1 vacker_0 size k i) (assign_49_10_1_abs i4 vacker_01 i4 vacker_01 i2 vacker_0 i2 vacker_0 size k i)) (while_83_12_1_abs i4 vacker_01 i3 vacker_01 i2 vacker_0 i1 vacker_0 rnd k i))))
;
;(while)   while((i<size))
(assert (forall ( (vacker_1 Int) (vacker_0 Int) (vacker_11 Int) (vacker_01 Int) (size Int) (k Int) (i Int) (i1 Int) (i2 Int) (i3 Int) (i4 Int)) (=> (and (=> (= i3 i4) (= vacker_0 vacker_1)) (=> (= i1 i2) (= vacker_01 vacker_11)) (while_83_12_1_abs i3 vacker_0 i3 vacker_0 i1 vacker_01 i1 vacker_01 size k i) (while_83_12_1_abs i3 vacker_0 i3 vacker_0 i1 vacker_01 i2 vacker_01 size k i) (while_83_12_1_abs i3 vacker_0 i3 vacker_0 i2 vacker_01 i1 vacker_01 size k i) (while_83_12_1_abs i3 vacker_0 i3 vacker_0 i2 vacker_01 i2 vacker_01 size k i) (while_83_12_1_abs i3 vacker_0 i4 vacker_0 i1 vacker_01 i1 vacker_01 size k i) (while_83_12_1_abs i3 vacker_0 i4 vacker_0 i1 vacker_01 i2 vacker_01 size k i) (while_83_12_1_abs i3 vacker_0 i4 vacker_0 i2 vacker_01 i1 vacker_01 size k i) (while_83_12_1_abs i3 vacker_0 i4 vacker_0 i2 vacker_01 i2 vacker_01 size k i) (while_83_12_1_abs i4 vacker_0 i3 vacker_0 i1 vacker_01 i1 vacker_01 size k i) (while_83_12_1_abs i4 vacker_0 i3 vacker_0 i1 vacker_01 i2 vacker_01 size k i) (while_83_12_1_abs i4 vacker_0 i3 vacker_0 i2 vacker_01 i1 vacker_01 size k i) (while_83_12_1_abs i4 vacker_0 i3 vacker_0 i2 vacker_01 i2 vacker_01 size k i) (while_83_12_1_abs i4 vacker_0 i4 vacker_0 i1 vacker_01 i1 vacker_01 size k i) (while_83_12_1_abs i4 vacker_0 i4 vacker_0 i1 vacker_01 i2 vacker_01 size k i) (while_83_12_1_abs i4 vacker_0 i4 vacker_0 i2 vacker_01 i1 vacker_01 size k i) (while_83_12_1_abs i4 vacker_0 i4 vacker_0 i2 vacker_01 i2 vacker_01 size k i) (< i size)) (arrayassign_71_13_5_abs i4 vacker_0 i3 vacker_0 i2 vacker_01 i1 vacker_01 size k i))))
(assert (forall ( (vacker_1 Int) (vacker_0 Int) (vacker_11 Int) (vacker_01 Int) (size Int) (k Int) (i Int) (i1 Int) (i2 Int) (i3 Int) (i4 Int)) (=> (and (=> (= i3 i4) (= vacker_0 vacker_1)) (=> (= i1 i2) (= vacker_01 vacker_11)) (while_83_12_1_abs i3 vacker_0 i3 vacker_0 i1 vacker_01 i1 vacker_01 size k i) (while_83_12_1_abs i3 vacker_0 i3 vacker_0 i1 vacker_01 i2 vacker_01 size k i) (while_83_12_1_abs i3 vacker_0 i3 vacker_0 i2 vacker_01 i1 vacker_01 size k i) (while_83_12_1_abs i3 vacker_0 i3 vacker_0 i2 vacker_01 i2 vacker_01 size k i) (while_83_12_1_abs i3 vacker_0 i4 vacker_0 i1 vacker_01 i1 vacker_01 size k i) (while_83_12_1_abs i3 vacker_0 i4 vacker_0 i1 vacker_01 i2 vacker_01 size k i) (while_83_12_1_abs i3 vacker_0 i4 vacker_0 i2 vacker_01 i1 vacker_01 size k i) (while_83_12_1_abs i3 vacker_0 i4 vacker_0 i2 vacker_01 i2 vacker_01 size k i) (while_83_12_1_abs i4 vacker_0 i3 vacker_0 i1 vacker_01 i1 vacker_01 size k i) (while_83_12_1_abs i4 vacker_0 i3 vacker_0 i1 vacker_01 i2 vacker_01 size k i) (while_83_12_1_abs i4 vacker_0 i3 vacker_0 i2 vacker_01 i1 vacker_01 size k i) (while_83_12_1_abs i4 vacker_0 i3 vacker_0 i2 vacker_01 i2 vacker_01 size k i) (while_83_12_1_abs i4 vacker_0 i4 vacker_0 i1 vacker_01 i1 vacker_01 size k i) (while_83_12_1_abs i4 vacker_0 i4 vacker_0 i1 vacker_01 i2 vacker_01 size k i) (while_83_12_1_abs i4 vacker_0 i4 vacker_0 i2 vacker_01 i1 vacker_01 size k i) (while_83_12_1_abs i4 vacker_0 i4 vacker_0 i2 vacker_01 i2 vacker_01 size k i) (not (< i size))) (assign_89_17_1_abs i4 vacker_0 i3 vacker_0 i2 vacker_01 i1 vacker_01 size k i))))
;
;(aassign) a_copy[i] := a[i]
(assert (forall ( (i Int) (k Int) (size Int) (vacker_2 Int) (vacker_1 Int) (vacker_0 Int) (vacker_11 Int) (vacker_01 Int) (i1 Int) (i2 Int) (i3 Int) (i4 Int)) (=> (and (=> (= i i1) (= vacker_0 vacker_1)) (=> (= i i2) (= vacker_0 vacker_2)) (=> (= i1 i2) (= vacker_1 vacker_2)) (=> (= i3 i4) (= vacker_01 vacker_11)) (arrayassign_71_13_5_abs i3 vacker_01 i3 vacker_01 i vacker_0 i vacker_0 size k i) (arrayassign_71_13_5_abs i3 vacker_01 i3 vacker_01 i vacker_0 i1 vacker_0 size k i) (arrayassign_71_13_5_abs i3 vacker_01 i3 vacker_01 i vacker_0 i2 vacker_0 size k i) (arrayassign_71_13_5_abs i3 vacker_01 i3 vacker_01 i1 vacker_0 i vacker_0 size k i) (arrayassign_71_13_5_abs i3 vacker_01 i3 vacker_01 i1 vacker_0 i1 vacker_0 size k i) (arrayassign_71_13_5_abs i3 vacker_01 i3 vacker_01 i1 vacker_0 i2 vacker_0 size k i) (arrayassign_71_13_5_abs i3 vacker_01 i3 vacker_01 i2 vacker_0 i vacker_0 size k i) (arrayassign_71_13_5_abs i3 vacker_01 i3 vacker_01 i2 vacker_0 i1 vacker_0 size k i) (arrayassign_71_13_5_abs i3 vacker_01 i3 vacker_01 i2 vacker_0 i2 vacker_0 size k i) (arrayassign_71_13_5_abs i3 vacker_01 i4 vacker_01 i vacker_0 i vacker_0 size k i) (arrayassign_71_13_5_abs i3 vacker_01 i4 vacker_01 i vacker_0 i1 vacker_0 size k i) (arrayassign_71_13_5_abs i3 vacker_01 i4 vacker_01 i vacker_0 i2 vacker_0 size k i) (arrayassign_71_13_5_abs i3 vacker_01 i4 vacker_01 i1 vacker_0 i vacker_0 size k i) (arrayassign_71_13_5_abs i3 vacker_01 i4 vacker_01 i1 vacker_0 i1 vacker_0 size k i) (arrayassign_71_13_5_abs i3 vacker_01 i4 vacker_01 i1 vacker_0 i2 vacker_0 size k i) (arrayassign_71_13_5_abs i3 vacker_01 i4 vacker_01 i2 vacker_0 i vacker_0 size k i) (arrayassign_71_13_5_abs i3 vacker_01 i4 vacker_01 i2 vacker_0 i1 vacker_0 size k i) (arrayassign_71_13_5_abs i3 vacker_01 i4 vacker_01 i2 vacker_0 i2 vacker_0 size k i) (arrayassign_71_13_5_abs i4 vacker_01 i3 vacker_01 i vacker_0 i vacker_0 size k i) (arrayassign_71_13_5_abs i4 vacker_01 i3 vacker_01 i vacker_0 i1 vacker_0 size k i) (arrayassign_71_13_5_abs i4 vacker_01 i3 vacker_01 i vacker_0 i2 vacker_0 size k i) (arrayassign_71_13_5_abs i4 vacker_01 i3 vacker_01 i1 vacker_0 i vacker_0 size k i) (arrayassign_71_13_5_abs i4 vacker_01 i3 vacker_01 i1 vacker_0 i1 vacker_0 size k i) (arrayassign_71_13_5_abs i4 vacker_01 i3 vacker_01 i1 vacker_0 i2 vacker_0 size k i) (arrayassign_71_13_5_abs i4 vacker_01 i3 vacker_01 i2 vacker_0 i vacker_0 size k i) (arrayassign_71_13_5_abs i4 vacker_01 i3 vacker_01 i2 vacker_0 i1 vacker_0 size k i) (arrayassign_71_13_5_abs i4 vacker_01 i3 vacker_01 i2 vacker_0 i2 vacker_0 size k i) (arrayassign_71_13_5_abs i4 vacker_01 i4 vacker_01 i vacker_0 i vacker_0 size k i) (arrayassign_71_13_5_abs i4 vacker_01 i4 vacker_01 i vacker_0 i1 vacker_0 size k i) (arrayassign_71_13_5_abs i4 vacker_01 i4 vacker_01 i vacker_0 i2 vacker_0 size k i) (arrayassign_71_13_5_abs i4 vacker_01 i4 vacker_01 i1 vacker_0 i vacker_0 size k i) (arrayassign_71_13_5_abs i4 vacker_01 i4 vacker_01 i1 vacker_0 i1 vacker_0 size k i) (arrayassign_71_13_5_abs i4 vacker_01 i4 vacker_01 i1 vacker_0 i2 vacker_0 size k i) (arrayassign_71_13_5_abs i4 vacker_01 i4 vacker_01 i2 vacker_0 i vacker_0 size k i) (arrayassign_71_13_5_abs i4 vacker_01 i4 vacker_01 i2 vacker_0 i1 vacker_0 size k i) (arrayassign_71_13_5_abs i4 vacker_01 i4 vacker_01 i2 vacker_0 i2 vacker_0 size k i)) (assign_80_14_5_abs i4 (ite (= i i4) vacker_0 vacker_01) i3 (ite (= i i3) vacker_0 vacker_01) i2 vacker_0 i1 vacker_0 size k i))))
;
;(assign)  i := (i+1)
(assert (forall ( (i Int) (k Int) (size Int) (vacker_1 Int) (vacker_0 Int) (vacker_11 Int) (vacker_01 Int) (i1 Int) (i2 Int) (i3 Int) (i4 Int)) (=> (and (=> (= i1 i2) (= vacker_0 vacker_1)) (=> (= i3 i4) (= vacker_01 vacker_11)) (assign_80_14_5_abs i3 vacker_01 i3 vacker_01 i1 vacker_0 i1 vacker_0 size k i) (assign_80_14_5_abs i3 vacker_01 i3 vacker_01 i1 vacker_0 i2 vacker_0 size k i) (assign_80_14_5_abs i3 vacker_01 i3 vacker_01 i2 vacker_0 i1 vacker_0 size k i) (assign_80_14_5_abs i3 vacker_01 i3 vacker_01 i2 vacker_0 i2 vacker_0 size k i) (assign_80_14_5_abs i3 vacker_01 i4 vacker_01 i1 vacker_0 i1 vacker_0 size k i) (assign_80_14_5_abs i3 vacker_01 i4 vacker_01 i1 vacker_0 i2 vacker_0 size k i) (assign_80_14_5_abs i3 vacker_01 i4 vacker_01 i2 vacker_0 i1 vacker_0 size k i) (assign_80_14_5_abs i3 vacker_01 i4 vacker_01 i2 vacker_0 i2 vacker_0 size k i) (assign_80_14_5_abs i4 vacker_01 i3 vacker_01 i1 vacker_0 i1 vacker_0 size k i) (assign_80_14_5_abs i4 vacker_01 i3 vacker_01 i1 vacker_0 i2 vacker_0 size k i) (assign_80_14_5_abs i4 vacker_01 i3 vacker_01 i2 vacker_0 i1 vacker_0 size k i) (assign_80_14_5_abs i4 vacker_01 i3 vacker_01 i2 vacker_0 i2 vacker_0 size k i) (assign_80_14_5_abs i4 vacker_01 i4 vacker_01 i1 vacker_0 i1 vacker_0 size k i) (assign_80_14_5_abs i4 vacker_01 i4 vacker_01 i1 vacker_0 i2 vacker_0 size k i) (assign_80_14_5_abs i4 vacker_01 i4 vacker_01 i2 vacker_0 i1 vacker_0 size k i) (assign_80_14_5_abs i4 vacker_01 i4 vacker_01 i2 vacker_0 i2 vacker_0 size k i)) (while_83_12_1_abs i4 vacker_01 i3 vacker_01 i2 vacker_0 i1 vacker_0 size k (+ i 1)))))
;
;(assign)  i := 0
(assert (forall ( (i Int) (k Int) (size Int) (vacker_1 Int) (vacker_0 Int) (vacker_11 Int) (vacker_01 Int) (i1 Int) (i2 Int) (i3 Int) (i4 Int)) (=> (and (=> (= i1 i2) (= vacker_0 vacker_1)) (=> (= i3 i4) (= vacker_01 vacker_11)) (assign_89_17_1_abs i3 vacker_01 i3 vacker_01 i1 vacker_0 i1 vacker_0 size k i) (assign_89_17_1_abs i3 vacker_01 i3 vacker_01 i1 vacker_0 i2 vacker_0 size k i) (assign_89_17_1_abs i3 vacker_01 i3 vacker_01 i2 vacker_0 i1 vacker_0 size k i) (assign_89_17_1_abs i3 vacker_01 i3 vacker_01 i2 vacker_0 i2 vacker_0 size k i) (assign_89_17_1_abs i3 vacker_01 i4 vacker_01 i1 vacker_0 i1 vacker_0 size k i) (assign_89_17_1_abs i3 vacker_01 i4 vacker_01 i1 vacker_0 i2 vacker_0 size k i) (assign_89_17_1_abs i3 vacker_01 i4 vacker_01 i2 vacker_0 i1 vacker_0 size k i) (assign_89_17_1_abs i3 vacker_01 i4 vacker_01 i2 vacker_0 i2 vacker_0 size k i) (assign_89_17_1_abs i4 vacker_01 i3 vacker_01 i1 vacker_0 i1 vacker_0 size k i) (assign_89_17_1_abs i4 vacker_01 i3 vacker_01 i1 vacker_0 i2 vacker_0 size k i) (assign_89_17_1_abs i4 vacker_01 i3 vacker_01 i2 vacker_0 i1 vacker_0 size k i) (assign_89_17_1_abs i4 vacker_01 i3 vacker_01 i2 vacker_0 i2 vacker_0 size k i) (assign_89_17_1_abs i4 vacker_01 i4 vacker_01 i1 vacker_0 i1 vacker_0 size k i) (assign_89_17_1_abs i4 vacker_01 i4 vacker_01 i1 vacker_0 i2 vacker_0 size k i) (assign_89_17_1_abs i4 vacker_01 i4 vacker_01 i2 vacker_0 i1 vacker_0 size k i) (assign_89_17_1_abs i4 vacker_01 i4 vacker_01 i2 vacker_0 i2 vacker_0 size k i)) (while_129_18_1_abs i4 vacker_01 i3 vacker_01 i2 vacker_0 i1 vacker_0 size k 0))))
;
;(while)   while((i<size))
(assert (forall ( (vacker_1 Int) (vacker_0 Int) (vacker_11 Int) (vacker_01 Int) (size Int) (k Int) (i Int) (i1 Int) (i2 Int) (i3 Int) (i4 Int)) (=> (and (=> (= i3 i4) (= vacker_0 vacker_1)) (=> (= i1 i2) (= vacker_01 vacker_11)) (while_129_18_1_abs i3 vacker_0 i3 vacker_0 i1 vacker_01 i1 vacker_01 size k i) (while_129_18_1_abs i3 vacker_0 i3 vacker_0 i1 vacker_01 i2 vacker_01 size k i) (while_129_18_1_abs i3 vacker_0 i3 vacker_0 i2 vacker_01 i1 vacker_01 size k i) (while_129_18_1_abs i3 vacker_0 i3 vacker_0 i2 vacker_01 i2 vacker_01 size k i) (while_129_18_1_abs i3 vacker_0 i4 vacker_0 i1 vacker_01 i1 vacker_01 size k i) (while_129_18_1_abs i3 vacker_0 i4 vacker_0 i1 vacker_01 i2 vacker_01 size k i) (while_129_18_1_abs i3 vacker_0 i4 vacker_0 i2 vacker_01 i1 vacker_01 size k i) (while_129_18_1_abs i3 vacker_0 i4 vacker_0 i2 vacker_01 i2 vacker_01 size k i) (while_129_18_1_abs i4 vacker_0 i3 vacker_0 i1 vacker_01 i1 vacker_01 size k i) (while_129_18_1_abs i4 vacker_0 i3 vacker_0 i1 vacker_01 i2 vacker_01 size k i) (while_129_18_1_abs i4 vacker_0 i3 vacker_0 i2 vacker_01 i1 vacker_01 size k i) (while_129_18_1_abs i4 vacker_0 i3 vacker_0 i2 vacker_01 i2 vacker_01 size k i) (while_129_18_1_abs i4 vacker_0 i4 vacker_0 i1 vacker_01 i1 vacker_01 size k i) (while_129_18_1_abs i4 vacker_0 i4 vacker_0 i1 vacker_01 i2 vacker_01 size k i) (while_129_18_1_abs i4 vacker_0 i4 vacker_0 i2 vacker_01 i1 vacker_01 size k i) (while_129_18_1_abs i4 vacker_0 i4 vacker_0 i2 vacker_01 i2 vacker_01 size k i) (< i size)) (arrayassign_117_19_5_abs i4 vacker_0 i3 vacker_0 i2 vacker_01 i1 vacker_01 size k i))))
(assert (forall ( (vacker_1 Int) (vacker_0 Int) (vacker_11 Int) (vacker_01 Int) (size Int) (k Int) (i Int) (i1 Int) (i2 Int) (i3 Int) (i4 Int)) (=> (and (=> (= i3 i4) (= vacker_0 vacker_1)) (=> (= i1 i2) (= vacker_01 vacker_11)) (while_129_18_1_abs i3 vacker_0 i3 vacker_0 i1 vacker_01 i1 vacker_01 size k i) (while_129_18_1_abs i3 vacker_0 i3 vacker_0 i1 vacker_01 i2 vacker_01 size k i) (while_129_18_1_abs i3 vacker_0 i3 vacker_0 i2 vacker_01 i1 vacker_01 size k i) (while_129_18_1_abs i3 vacker_0 i3 vacker_0 i2 vacker_01 i2 vacker_01 size k i) (while_129_18_1_abs i3 vacker_0 i4 vacker_0 i1 vacker_01 i1 vacker_01 size k i) (while_129_18_1_abs i3 vacker_0 i4 vacker_0 i1 vacker_01 i2 vacker_01 size k i) (while_129_18_1_abs i3 vacker_0 i4 vacker_0 i2 vacker_01 i1 vacker_01 size k i) (while_129_18_1_abs i3 vacker_0 i4 vacker_0 i2 vacker_01 i2 vacker_01 size k i) (while_129_18_1_abs i4 vacker_0 i3 vacker_0 i1 vacker_01 i1 vacker_01 size k i) (while_129_18_1_abs i4 vacker_0 i3 vacker_0 i1 vacker_01 i2 vacker_01 size k i) (while_129_18_1_abs i4 vacker_0 i3 vacker_0 i2 vacker_01 i1 vacker_01 size k i) (while_129_18_1_abs i4 vacker_0 i3 vacker_0 i2 vacker_01 i2 vacker_01 size k i) (while_129_18_1_abs i4 vacker_0 i4 vacker_0 i1 vacker_01 i1 vacker_01 size k i) (while_129_18_1_abs i4 vacker_0 i4 vacker_0 i1 vacker_01 i2 vacker_01 size k i) (while_129_18_1_abs i4 vacker_0 i4 vacker_0 i2 vacker_01 i1 vacker_01 size k i) (while_129_18_1_abs i4 vacker_0 i4 vacker_0 i2 vacker_01 i2 vacker_01 size k i) (not (< i size))) (assign_147_23_1_abs i4 vacker_0 i3 vacker_0 i2 vacker_01 i1 vacker_01 size k i))))
;
;(aassign) a[i] := a_copy[((size-i)-1)]
(assert (forall ( (i Int) (k Int) (size Int) (vacker_1 Int) (vacker_0 Int) (vacker_2 Int) (vacker_11 Int) (vacker_01 Int) (i1 Int) (i2 Int) (i3 Int) (i4 Int)) (=> (and (=> (= i1 i2) (= vacker_0 vacker_1)) (=> (= (- (- size i) 1) i3) (= vacker_01 vacker_11)) (=> (= (- (- size i) 1) i4) (= vacker_01 vacker_2)) (=> (= i3 i4) (= vacker_11 vacker_2)) (arrayassign_117_19_5_abs (- (- size i) 1) vacker_01 (- (- size i) 1) vacker_01 i1 vacker_0 i1 vacker_0 size k i) (arrayassign_117_19_5_abs (- (- size i) 1) vacker_01 (- (- size i) 1) vacker_01 i1 vacker_0 i2 vacker_0 size k i) (arrayassign_117_19_5_abs (- (- size i) 1) vacker_01 (- (- size i) 1) vacker_01 i2 vacker_0 i1 vacker_0 size k i) (arrayassign_117_19_5_abs (- (- size i) 1) vacker_01 (- (- size i) 1) vacker_01 i2 vacker_0 i2 vacker_0 size k i) (arrayassign_117_19_5_abs (- (- size i) 1) vacker_01 i3 vacker_01 i1 vacker_0 i1 vacker_0 size k i) (arrayassign_117_19_5_abs (- (- size i) 1) vacker_01 i3 vacker_01 i1 vacker_0 i2 vacker_0 size k i) (arrayassign_117_19_5_abs (- (- size i) 1) vacker_01 i3 vacker_01 i2 vacker_0 i1 vacker_0 size k i) (arrayassign_117_19_5_abs (- (- size i) 1) vacker_01 i3 vacker_01 i2 vacker_0 i2 vacker_0 size k i) (arrayassign_117_19_5_abs (- (- size i) 1) vacker_01 i4 vacker_01 i1 vacker_0 i1 vacker_0 size k i) (arrayassign_117_19_5_abs (- (- size i) 1) vacker_01 i4 vacker_01 i1 vacker_0 i2 vacker_0 size k i) (arrayassign_117_19_5_abs (- (- size i) 1) vacker_01 i4 vacker_01 i2 vacker_0 i1 vacker_0 size k i) (arrayassign_117_19_5_abs (- (- size i) 1) vacker_01 i4 vacker_01 i2 vacker_0 i2 vacker_0 size k i) (arrayassign_117_19_5_abs i3 vacker_01 (- (- size i) 1) vacker_01 i1 vacker_0 i1 vacker_0 size k i) (arrayassign_117_19_5_abs i3 vacker_01 (- (- size i) 1) vacker_01 i1 vacker_0 i2 vacker_0 size k i) (arrayassign_117_19_5_abs i3 vacker_01 (- (- size i) 1) vacker_01 i2 vacker_0 i1 vacker_0 size k i) (arrayassign_117_19_5_abs i3 vacker_01 (- (- size i) 1) vacker_01 i2 vacker_0 i2 vacker_0 size k i) (arrayassign_117_19_5_abs i3 vacker_01 i3 vacker_01 i1 vacker_0 i1 vacker_0 size k i) (arrayassign_117_19_5_abs i3 vacker_01 i3 vacker_01 i1 vacker_0 i2 vacker_0 size k i) (arrayassign_117_19_5_abs i3 vacker_01 i3 vacker_01 i2 vacker_0 i1 vacker_0 size k i) (arrayassign_117_19_5_abs i3 vacker_01 i3 vacker_01 i2 vacker_0 i2 vacker_0 size k i) (arrayassign_117_19_5_abs i3 vacker_01 i4 vacker_01 i1 vacker_0 i1 vacker_0 size k i) (arrayassign_117_19_5_abs i3 vacker_01 i4 vacker_01 i1 vacker_0 i2 vacker_0 size k i) (arrayassign_117_19_5_abs i3 vacker_01 i4 vacker_01 i2 vacker_0 i1 vacker_0 size k i) (arrayassign_117_19_5_abs i3 vacker_01 i4 vacker_01 i2 vacker_0 i2 vacker_0 size k i) (arrayassign_117_19_5_abs i4 vacker_01 (- (- size i) 1) vacker_01 i1 vacker_0 i1 vacker_0 size k i) (arrayassign_117_19_5_abs i4 vacker_01 (- (- size i) 1) vacker_01 i1 vacker_0 i2 vacker_0 size k i) (arrayassign_117_19_5_abs i4 vacker_01 (- (- size i) 1) vacker_01 i2 vacker_0 i1 vacker_0 size k i) (arrayassign_117_19_5_abs i4 vacker_01 (- (- size i) 1) vacker_01 i2 vacker_0 i2 vacker_0 size k i) (arrayassign_117_19_5_abs i4 vacker_01 i3 vacker_01 i1 vacker_0 i1 vacker_0 size k i) (arrayassign_117_19_5_abs i4 vacker_01 i3 vacker_01 i1 vacker_0 i2 vacker_0 size k i) (arrayassign_117_19_5_abs i4 vacker_01 i3 vacker_01 i2 vacker_0 i1 vacker_0 size k i) (arrayassign_117_19_5_abs i4 vacker_01 i3 vacker_01 i2 vacker_0 i2 vacker_0 size k i) (arrayassign_117_19_5_abs i4 vacker_01 i4 vacker_01 i1 vacker_0 i1 vacker_0 size k i) (arrayassign_117_19_5_abs i4 vacker_01 i4 vacker_01 i1 vacker_0 i2 vacker_0 size k i) (arrayassign_117_19_5_abs i4 vacker_01 i4 vacker_01 i2 vacker_0 i1 vacker_0 size k i) (arrayassign_117_19_5_abs i4 vacker_01 i4 vacker_01 i2 vacker_0 i2 vacker_0 size k i)) (assign_126_20_5_abs i4 vacker_01 i3 vacker_01 i2 (ite (= i i2) vacker_01 vacker_0) i1 (ite (= i i1) vacker_01 vacker_0) size k i))))
;
;(assign)  i := (i+1)
(assert (forall ( (i Int) (k Int) (size Int) (vacker_1 Int) (vacker_0 Int) (vacker_11 Int) (vacker_01 Int) (i1 Int) (i2 Int) (i3 Int) (i4 Int)) (=> (and (=> (= i1 i2) (= vacker_0 vacker_1)) (=> (= i3 i4) (= vacker_01 vacker_11)) (assign_126_20_5_abs i3 vacker_01 i3 vacker_01 i1 vacker_0 i1 vacker_0 size k i) (assign_126_20_5_abs i3 vacker_01 i3 vacker_01 i1 vacker_0 i2 vacker_0 size k i) (assign_126_20_5_abs i3 vacker_01 i3 vacker_01 i2 vacker_0 i1 vacker_0 size k i) (assign_126_20_5_abs i3 vacker_01 i3 vacker_01 i2 vacker_0 i2 vacker_0 size k i) (assign_126_20_5_abs i3 vacker_01 i4 vacker_01 i1 vacker_0 i1 vacker_0 size k i) (assign_126_20_5_abs i3 vacker_01 i4 vacker_01 i1 vacker_0 i2 vacker_0 size k i) (assign_126_20_5_abs i3 vacker_01 i4 vacker_01 i2 vacker_0 i1 vacker_0 size k i) (assign_126_20_5_abs i3 vacker_01 i4 vacker_01 i2 vacker_0 i2 vacker_0 size k i) (assign_126_20_5_abs i4 vacker_01 i3 vacker_01 i1 vacker_0 i1 vacker_0 size k i) (assign_126_20_5_abs i4 vacker_01 i3 vacker_01 i1 vacker_0 i2 vacker_0 size k i) (assign_126_20_5_abs i4 vacker_01 i3 vacker_01 i2 vacker_0 i1 vacker_0 size k i) (assign_126_20_5_abs i4 vacker_01 i3 vacker_01 i2 vacker_0 i2 vacker_0 size k i) (assign_126_20_5_abs i4 vacker_01 i4 vacker_01 i1 vacker_0 i1 vacker_0 size k i) (assign_126_20_5_abs i4 vacker_01 i4 vacker_01 i1 vacker_0 i2 vacker_0 size k i) (assign_126_20_5_abs i4 vacker_01 i4 vacker_01 i2 vacker_0 i1 vacker_0 size k i) (assign_126_20_5_abs i4 vacker_01 i4 vacker_01 i2 vacker_0 i2 vacker_0 size k i)) (while_129_18_1_abs i4 vacker_01 i3 vacker_01 i2 vacker_0 i1 vacker_0 size k (+ i 1)))))
;
;(assign)  k := Support.random(0, (size+1))
(assert (forall ( (rnd Int) (vacker_1 Int) (vacker_0 Int) (vacker_11 Int) (vacker_01 Int) (size Int) (k Int) (i Int) (i1 Int) (i2 Int) (i3 Int) (i4 Int)) (=> (and (=> (= i3 i4) (= vacker_0 vacker_1)) (=> (= i1 i2) (= vacker_01 vacker_11)) (assign_147_23_1_abs i3 vacker_0 i3 vacker_0 i1 vacker_01 i1 vacker_01 size k i) (assign_147_23_1_abs i3 vacker_0 i3 vacker_0 i1 vacker_01 i2 vacker_01 size k i) (assign_147_23_1_abs i3 vacker_0 i3 vacker_0 i2 vacker_01 i1 vacker_01 size k i) (assign_147_23_1_abs i3 vacker_0 i3 vacker_0 i2 vacker_01 i2 vacker_01 size k i) (assign_147_23_1_abs i3 vacker_0 i4 vacker_0 i1 vacker_01 i1 vacker_01 size k i) (assign_147_23_1_abs i3 vacker_0 i4 vacker_0 i1 vacker_01 i2 vacker_01 size k i) (assign_147_23_1_abs i3 vacker_0 i4 vacker_0 i2 vacker_01 i1 vacker_01 size k i) (assign_147_23_1_abs i3 vacker_0 i4 vacker_0 i2 vacker_01 i2 vacker_01 size k i) (assign_147_23_1_abs i4 vacker_0 i3 vacker_0 i1 vacker_01 i1 vacker_01 size k i) (assign_147_23_1_abs i4 vacker_0 i3 vacker_0 i1 vacker_01 i2 vacker_01 size k i) (assign_147_23_1_abs i4 vacker_0 i3 vacker_0 i2 vacker_01 i1 vacker_01 size k i) (assign_147_23_1_abs i4 vacker_0 i3 vacker_0 i2 vacker_01 i2 vacker_01 size k i) (assign_147_23_1_abs i4 vacker_0 i4 vacker_0 i1 vacker_01 i1 vacker_01 size k i) (assign_147_23_1_abs i4 vacker_0 i4 vacker_0 i1 vacker_01 i2 vacker_01 size k i) (assign_147_23_1_abs i4 vacker_0 i4 vacker_0 i2 vacker_01 i1 vacker_01 size k i) (assign_147_23_1_abs i4 vacker_0 i4 vacker_0 i2 vacker_01 i2 vacker_01 size k i) (>= rnd 0) (< rnd (+ size 1))) (assert_171_24_1_abs i4 vacker_0 i3 vacker_0 i2 vacker_01 i1 vacker_01 size rnd i))))
;
;(assert)  (a_copy[((size-1)-k)]==a[k])
(assert (forall ( (i Int) (k Int) (size Int) (acker1 Int) (acker Int)) (=> (assert_171_24_1_abs (- (- size 1) k) acker (- (- size 1) k) acker k acker1 k acker1 size k i) (= acker acker1))))
(assert (forall ( (i Int) (k Int) (size Int) (vacker_1 Int) (vacker_0 Int) (vacker_11 Int) (vacker_01 Int) (i1 Int) (i2 Int) (i3 Int) (i4 Int)) (=> (and (=> (= i1 i2) (= vacker_0 vacker_1)) (=> (= i3 i4) (= vacker_01 vacker_11)) (assert_171_24_1_abs i3 vacker_01 i3 vacker_01 i1 vacker_0 i1 vacker_0 size k i) (assert_171_24_1_abs i3 vacker_01 i3 vacker_01 i1 vacker_0 i2 vacker_0 size k i) (assert_171_24_1_abs i3 vacker_01 i3 vacker_01 i2 vacker_0 i1 vacker_0 size k i) (assert_171_24_1_abs i3 vacker_01 i3 vacker_01 i2 vacker_0 i2 vacker_0 size k i) (assert_171_24_1_abs i3 vacker_01 i4 vacker_01 i1 vacker_0 i1 vacker_0 size k i) (assert_171_24_1_abs i3 vacker_01 i4 vacker_01 i1 vacker_0 i2 vacker_0 size k i) (assert_171_24_1_abs i3 vacker_01 i4 vacker_01 i2 vacker_0 i1 vacker_0 size k i) (assert_171_24_1_abs i3 vacker_01 i4 vacker_01 i2 vacker_0 i2 vacker_0 size k i) (assert_171_24_1_abs i4 vacker_01 i3 vacker_01 i1 vacker_0 i1 vacker_0 size k i) (assert_171_24_1_abs i4 vacker_01 i3 vacker_01 i1 vacker_0 i2 vacker_0 size k i) (assert_171_24_1_abs i4 vacker_01 i3 vacker_01 i2 vacker_0 i1 vacker_0 size k i) (assert_171_24_1_abs i4 vacker_01 i3 vacker_01 i2 vacker_0 i2 vacker_0 size k i) (assert_171_24_1_abs i4 vacker_01 i4 vacker_01 i1 vacker_0 i1 vacker_0 size k i) (assert_171_24_1_abs i4 vacker_01 i4 vacker_01 i1 vacker_0 i2 vacker_0 size k i) (assert_171_24_1_abs i4 vacker_01 i4 vacker_01 i2 vacker_0 i1 vacker_0 size k i) (assert_171_24_1_abs i4 vacker_01 i4 vacker_01 i2 vacker_0 i2 vacker_0 size k i)) (end_abs i4 vacker_01 i3 vacker_01 i2 vacker_0 i1 vacker_0 size k i))))
(check-sat)
